asp/input/in_50_25_9_3.lp
#const n = 50.
#const k = 25.
#const h = 9.
tile(1,14,7).
tile(2,7,10).
tile(3,1,3).
tile(4,10,1).
tile(5,25,16).
tile(6,10,15).
tile(7,2,18).
tile(8,2,24).
tile(9,25,23).
tile(10,2,17).
tile(11,8,6).
tile(12,21,8).
tile(13,25,10).
tile(14,11,1).
tile(15,13,18).
tile(16,7,1).
tile(17,21,14).
tile(18,3,17).
tile(19,21,17).
tile(20,8,17).
tile(21,17,6).
tile(22,8,18).
tile(23,25,15).
tile(24,5,25).
tile(25,5,2).
tile(26,22,19).
tile(27,24,11).
tile(28,2,24).
tile(29,25,5).
tile(30,9,1).
tile(31,6,13).
tile(32,18,9).
tile(33,12,16).
tile(34,6,25).
tile(35,7,11).
tile(36,10,9).
tile(37,9,17).
tile(38,11,14).
tile(39,7,3).
tile(40,8,14).
tile(41,5,21).
tile(42,22,2).
tile(43,9,15).
tile(44,4,13).
tile(45,25,16).
tile(46,6,13).
tile(47,23,24).
tile(48,19,25).
tile(49,19,12).
tile(50,9,20).
