instances/in_50_25_9_3.dzn
n = 50;
k = 25;
h = 9;
tiles = array2d(1..n, 1..2,
[ 14,7
, 7,10
, 1,3
, 10,1
, 25,16
, 10,15
, 2,18
, 2,24
, 25,23
, 2,17
, 8,6
, 21,8
, 25,10
, 11,1
, 13,18
, 7,1
, 21,14
, 3,17
, 21,17
, 8,17
, 17,6
, 8,18
, 25,15
, 5,25
, 5,2
, 22,19
, 24,11
, 2,24
, 25,5
, 9,1
, 6,13
, 18,9
, 12,16
, 6,25
, 7,11
, 10,9
, 9,17
, 11,14
, 7,3
, 8,14
, 5,21
, 22,2
, 9,15
, 4,13
, 25,16
, 6,13
, 23,24
, 19,25
, 19,12
, 9,20
]);